Running HiGHS 1.7.2 (git hash: 5ce7a2753): Copyright (c) 2024 HiGHS under MIT licence terms
Coefficient ranges:
  Matrix [1e+00, 1e+00]
  Cost   [1e+00, 1e+00]
  Bound  [1e+00, 1e+00]
  RHS    [1e+00, 1e+00]
Presolving model
338 rows, 77 cols, 726 nonzeros  0s
212 rows, 77 cols, 474 nonzeros  0s
149 rows, 75 cols, 412 nonzeros  0s
127 rows, 75 cols, 391 nonzeros  0s
Objective function is integral with scale 1

Solving MIP model with:
   127 rows
   75 cols (75 binary, 0 integer, 0 implied int., 0 continuous)
   391 nonzeros

        Nodes      |    B&B Tree     |            Objective Bounds              |  Dynamic Constraints |       Work      
     Proc. InQueue |  Leaves   Expl. | BestBound       BestSol              Gap |   Cuts   InLp Confl. | LpIters     Time

         0       0         0   0.00%   2               inf                  inf        0      0      0         0     0.0s
         0       0         0   0.00%   3.538461538     inf                  inf        0      0      4        84     0.0s

Solving report
  Status            Optimal
  Primal bound      4
  Dual bound        4
  Gap               0% (tolerance: 0.01%)
  Solution status   feasible
                    4 (objective)
                    0 (bound viol.)
                    0 (int. viol.)
                    0 (row viol.)
  Timing            0.01 (total)
                    0.00 (presolve)
                    0.00 (postsolve)
  Nodes             1
  LP iterations     95 (total)
                    0 (strong br.)
                    11 (separation)
                    0 (heuristics)
ARGS = ["1", "300", "selected_instances/02.txt"]
instance = (10, 18, [[3, 4, 7, 10], [10, 3], [7, 1, 4, 5, 2], [6, 1, 3, 8, 10, 9], [7, 3], [8, 10, 4], [3, 5, 9, 1], [6, 4, 10], [7, 4], [6, 4, 2, 8, 1]], 7)
round.(value.(model[:x])) = [0.0 1.0 0.0 0.0 0.0 0.0 0.0; 1.0 0.0 0.0 0.0 0.0 0.0 0.0; 0.0 0.0 0.0 1.0 0.0 0.0 0.0; 0.0 0.0 1.0 0.0 0.0 0.0 0.0; 1.0 0.0 0.0 0.0 0.0 0.0 0.0; 0.0 1.0 0.0 0.0 0.0 0.0 0.0; 0.0 0.0 1.0 0.0 0.0 0.0 0.0; 1.0 0.0 0.0 0.0 0.0 0.0 0.0; 1.0 0.0 0.0 0.0 0.0 0.0 0.0; 0.0 0.0 0.0 1.0 0.0 0.0 0.0]
round.(value.(model[:y])) = [1.0, 1.0, 1.0, 1.0, 0.0, 0.0, 0.0]
(n, m, A) = (10, 18, [[3, 4, 7, 10], [10, 3], [7, 1, 4, 5, 2], [6, 1, 3, 8, 10, 9], [7, 3], [8, 10, 4], [3, 5, 9, 1], [6, 4, 10], [7, 4], [6, 4, 2, 8, 1]])
 1 (2), 2 (1), 3 (4), 4 (3), 5 (1), 6 (2), 7 (3), 8 (1), 9 (1), 10 (4),
objective_bound(model) = 4.0
objective_value(model) = 4.0
